30
86
54
0
63
50
50
35
0
0
0
32
33
27
81
0
0
34
63
15
0
92
83
27
22
0
31
35
27
34
45
0
32
0
28
74
61
57
35
33
38
66
32
35
19
57
27
30
38
19
55
30
0
0
0
22
14
28
52
33
0
88
0
0
26
139
29
22
0
24
35
33
53
0
49
80
69
31
63
19
23
0
93
28
0
35
272
64
0
44
26
39
22
26
31
0
36
34
18
23
